20
99.0
0 19 9.05 8.37
1 18 9.89 10.94
2 17 10.59 14.53
3 16 11.12 11.62
4 15 12.6 11.8
5 14 11.64 9.29
6 13 15.69 12.15
7 12 11.0 9.92
8 11 10.18 14.55
9 10 10.3 8.8
10 9 9.33 12.11
11 8 10.12 7.0
12 7 8.29 11.86
13 6 10.5 11.67
14 5 10.6 11.4
15 4 12.0 7.75
16 3 9.67 10.0
17 2 8.0 16.0
18 1 2.0 4.0
